c generated by sgen
c see http://www.cs.qub.ac.uk/~i.spence/sgen
p cnf 117 244
-2 -3 -4 0
-1 -3 -4 0
-1 -2 -4 0
-1 -2 -3 0
-6 -7 -8 0
-5 -7 -8 0
-5 -6 -8 0
-5 -6 -7 0
-10 -11 -12 0
-9 -11 -12 0
-9 -10 -12 0
-9 -10 -11 0
-14 -15 -16 0
-13 -15 -16 0
-13 -14 -16 0
-13 -14 -15 0
-18 -19 -20 0
-17 -19 -20 0
-17 -18 -20 0
-17 -18 -19 0
-22 -23 -24 0
-21 -23 -24 0
-21 -22 -24 0
-21 -22 -23 0
-26 -27 -28 0
-25 -27 -28 0
-25 -26 -28 0
-25 -26 -27 0
-30 -31 -32 0
-29 -31 -32 0
-29 -30 -32 0
-29 -30 -31 0
-34 -35 -36 0
-33 -35 -36 0
-33 -34 -36 0
-33 -34 -35 0
-38 -39 -40 0
-37 -39 -40 0
-37 -38 -40 0
-37 -38 -39 0
-42 -43 -44 0
-41 -43 -44 0
-41 -42 -44 0
-41 -42 -43 0
-46 -47 -48 0
-45 -47 -48 0
-45 -46 -48 0
-45 -46 -47 0
-50 -51 -52 0
-49 -51 -52 0
-49 -50 -52 0
-49 -50 -51 0
-54 -55 -56 0
-53 -55 -56 0
-53 -54 -56 0
-53 -54 -55 0
-58 -59 -60 0
-57 -59 -60 0
-57 -58 -60 0
-57 -58 -59 0
-62 -63 -64 0
-61 -63 -64 0
-61 -62 -64 0
-61 -62 -63 0
-66 -67 -68 0
-65 -67 -68 0
-65 -66 -68 0
-65 -66 -67 0
-70 -71 -72 0
-69 -71 -72 0
-69 -70 -72 0
-69 -70 -71 0
-74 -75 -76 0
-73 -75 -76 0
-73 -74 -76 0
-73 -74 -75 0
-78 -79 -80 0
-77 -79 -80 0
-77 -78 -80 0
-77 -78 -79 0
-82 -83 -84 0
-81 -83 -84 0
-81 -82 -84 0
-81 -82 -83 0
-86 -87 -88 0
-85 -87 -88 0
-85 -86 -88 0
-85 -86 -87 0
-90 -91 -92 0
-89 -91 -92 0
-89 -90 -92 0
-89 -90 -91 0
-94 -95 -96 0
-93 -95 -96 0
-93 -94 -96 0
-93 -94 -95 0
-98 -99 -100 0
-97 -99 -100 0
-97 -98 -100 0
-97 -98 -99 0
-102 -103 -104 0
-101 -103 -104 0
-101 -102 -104 0
-101 -102 -103 0
-106 -107 -108 0
-105 -107 -108 0
-105 -106 -108 0
-105 -106 -107 0
-110 -111 -112 0
-109 -111 -112 0
-109 -110 -112 0
-109 -110 -111 0
-113 -114 -115 0
-113 -114 -116 0
-113 -114 -117 0
-113 -115 -116 0
-113 -115 -117 0
-113 -116 -117 0
-114 -115 -116 0
-114 -115 -117 0
-114 -116 -117 0
-115 -116 -117 0
70 112 115 0
95 112 115 0
95 70 115 0
95 70 112 0
45 2 37 0
63 2 37 0
63 45 37 0
63 45 2 0
51 14 67 0
94 14 67 0
94 51 67 0
94 51 14 0
49 24 38 0
6 24 38 0
6 49 38 0
6 49 24 0
98 50 90 0
84 50 90 0
84 98 90 0
84 98 50 0
11 97 42 0
4 97 42 0
4 11 42 0
4 11 97 0
60 109 75 0
10 109 75 0
10 60 75 0
10 60 109 0
34 26 88 0
22 26 88 0
22 34 88 0
22 34 26 0
79 85 102 0
96 85 102 0
96 79 102 0
96 79 85 0
27 117 76 0
99 117 76 0
99 27 76 0
99 27 117 0
58 8 105 0
18 8 105 0
18 58 105 0
18 58 8 0
29 65 107 0
116 65 107 0
116 29 107 0
116 29 65 0
61 12 114 0
56 12 114 0
56 61 114 0
56 61 12 0
69 62 57 0
83 62 57 0
83 69 57 0
83 69 62 0
43 30 19 0
111 30 19 0
111 43 19 0
111 43 30 0
53 40 9 0
15 40 9 0
15 53 9 0
15 53 40 0
55 20 46 0
87 20 46 0
87 55 46 0
87 55 20 0
33 89 16 0
82 89 16 0
82 33 16 0
82 33 89 0
36 100 110 0
77 100 110 0
77 36 110 0
77 36 100 0
74 7 66 0
48 7 66 0
48 74 66 0
48 74 7 0
93 21 64 0
91 21 64 0
91 93 64 0
91 93 21 0
92 101 25 0
54 101 25 0
54 92 25 0
54 92 101 0
32 28 59 0
78 28 59 0
78 32 59 0
78 32 28 0
71 68 86 0
3 68 86 0
3 71 86 0
3 71 68 0
44 103 5 0
113 103 5 0
113 44 5 0
113 44 103 0
1 35 17 0
104 35 17 0
104 1 17 0
104 1 35 0
106 73 80 0
13 73 80 0
13 106 80 0
13 106 73 0
72 31 52 0
39 31 52 0
39 72 52 0
39 72 31 0
108 81 41 0
108 81 47 0
108 81 23 0
108 41 47 0
108 41 23 0
108 47 23 0
81 41 47 0
81 41 23 0
81 47 23 0
41 47 23 0
